(set-logic QF_ABV)(declare-sort PMS 0)
(declare-sort HTD 0)
(declare-fun node_Err_ok () Bool)
(declare-fun node_Ret_ok () Bool)
(declare-fun node_17_ok () Bool)
(declare-fun node_pre_condition_ok () Bool)
(declare-fun node_upd_n17_ok () Bool)
(declare-fun node_guard_n4_ok () Bool)
(declare-fun node_4_ok () Bool)
(declare-fun node_guard_n3_ok () Bool)
(declare-fun node_3_ok () Bool)
(declare-fun node_upd_n3_ok () Bool)
(declare-fun node_2_ok () Bool)
(declare-fun node_1_ok () Bool)
(declare-fun node_post_condition_ok () Bool)

(declare-fun x___int@v~1 () (_ BitVec 32))
(declare-fun Mem~1 () (Array (_ BitVec 61) (_ BitVec 64)))
(declare-fun HTD~1 () HTD)
(declare-fun PMS~1 () PMS)
(declare-fun GhostAssertions~1 () (Array (_ BitVec 50) (_ BitVec 64)))
(declare-fun x___int@v@assigned~1 () Bool)
(declare-fun Mem@assigned~1 () Bool)
(declare-fun HTD@assigned~1 () Bool)
(declare-fun PMS@assigned~1 () Bool)
(declare-fun GhostAssertions@assigned~1 () Bool)
(declare-fun ret__int@v@assigned~1 () Bool)
(declare-fun ret__int@v~1 () (_ BitVec 32))
(declare-fun ret__int@v@assigned~2 () Bool)

(assert (= node_Err_ok false))
(assert (= node_Ret_ok true))
(assert (= node_17_ok node_pre_condition_ok))
(assert (= node_pre_condition_ok (=> true node_upd_n17_ok)))
(assert (= node_upd_n17_ok (=> (= x___int@v@assigned~1 true) (=> (= Mem@assigned~1 true) (=> (= HTD@assigned~1 true) (=> (= PMS@assigned~1 true) (=> (= GhostAssertions@assigned~1 true) (=> (= ret__int@v@assigned~1 false) node_guard_n4_ok))))))))
(assert (= node_guard_n4_ok (and (=> x___int@v@assigned~1 node_4_ok) (=> (not x___int@v@assigned~1) node_Err_ok))))
(assert (= node_4_ok (and (=> (= (bvsle (_ bv0 32) (bvsub x___int@v~1 (_ bv1 32))) (bvsle (_ bv1 32) x___int@v~1)) node_guard_n3_ok) (=> (not (= (bvsle (_ bv0 32) (bvsub x___int@v~1 (_ bv1 32))) (bvsle (_ bv1 32) x___int@v~1))) node_Err_ok))))
(assert (= node_guard_n3_ok (and (=> x___int@v@assigned~1 node_3_ok) (=> (not x___int@v@assigned~1) node_Err_ok))))
(assert (= node_3_ok (=> (= ret__int@v~1 (bvsub x___int@v~1 (_ bv1 32))) node_upd_n3_ok)))
(assert (= node_upd_n3_ok (=> (= ret__int@v@assigned~2 x___int@v@assigned~1) node_1_ok)))
(assert (= node_2_ok (and (=> false node_1_ok) (=> true node_Err_ok))))
(assert (= node_1_ok node_post_condition_ok))
(assert (= node_post_condition_ok (and (=> true node_Ret_ok) (=> false node_Err_ok))))
(check-sat)
(assert (not node_17_ok))
(check-sat)
(assert (not node_guard_n3_ok))
(check-sat)
